\ENCODING=ISO-8859-1
\Problem name: ilog.cplex

Maximize
 obj: 633 x(0)#0 + 686 x(1)#1 + 828 x(2)#2 + 448 x(3)#3 + 488 x(4)#4
      + 886 x(5)#5 + 673 x(6)#6 + 780 x(7)#7 + 668 x(8)#8 + 422 x(9)#9
      + 464 x(10)#10 + 760 x(11)#11 + 842 x(12)#12 + 637 x(13)#13
      + 574 x(14)#14 + 841 x(15)#15 + 532 x(16)#16 + 947 x(17)#17
      + 712 x(18)#18 + 734 x(19)#19 + 815 x(20)#20 + 873 x(21)#21
      + 945 x(22)#22 + 407 x(23)#23 + 798 x(24)#24 + 717 x(25)#25
      + 640 x(26)#26 + 688 x(27)#27 + 805 x(28)#28 + 863 x(29)#29
      + 796 x(30)#30 + 597 x(31)#31 + 730 x(32)#32 + 493 x(33)#33
      + 541 x(34)#34 + 871 x(35)#35 + 448 x(36)#36 + 557 x(37)#37
      + 690 x(38)#38 + 801 x(39)#39 + 690 x(40)#40 + 748 x(41)#41
      + 853 x(42)#42 + 906 x(43)#43 + 593 x(44)#44 + 925 x(45)#45
      + 916 x(46)#46 + 624 x(47)#47 + 681 x(48)#48 + 669 x(49)#49
      + 579 x(50)#50 + 926 x(51)#51 + 703 x(52)#52 + 430 x(53)#53
      + 1023 x(54)#54 + 554 x(55)#55 + 854 x(56)#56 + 809 x(57)#57
      + 785 x(58)#58 + 712 x(59)#59 + 564 x(60)#60 + 1030 x(61)#61
      + 917 x(62)#62 + 660 x(63)#63 + 1058 x(64)#64 + 634 x(65)#65
      + 457 x(66)#66 + 972 x(67)#67 + 1028 x(68)#68 + 580 x(69)#69
      + 932 x(70)#70 + 723 x(71)#71 + 669 x(72)#72 + 487 x(73)#73
      + 440 x(74)#74 + 650 x(75)#75 + 623 x(76)#76 + 621 x(77)#77
      + 605 x(78)#78 + 488 x(79)#79 + 848 x(80)#80 + 784 x(81)#81
      + 913 x(82)#82 + 521 x(83)#83 + 590 x(84)#84 + 677 x(85)#85
      + 646 x(86)#86 + 656 x(87)#87 + 688 x(88)#88 + 939 x(89)#89
      + 867 x(90)#90 + 483 x(91)#91 + 328 x(92)#92 + 534 x(93)#93
      + 578 x(94)#94 + 477 x(95)#95 + 676 x(96)#96 + 800 x(97)#97
      + 680 x(98)#98 + 628 x(99)#99
Subject To
 c1:  566 x(0)#0 + 792 x(1)#1 + 258 x(2)#2 + 359 x(3)#3 + 889 x(4)#4
      + 527 x(5)#5 + 473 x(6)#6 + 390 x(7)#7 + 315 x(8)#8 + 249 x(9)#9
      + 664 x(10)#10 + 550 x(11)#11 + 188 x(12)#12 + 674 x(13)#13
      + 482 x(14)#14 + 763 x(15)#15 + 786 x(16)#16 + 675 x(17)#17
      + 162 x(18)#18 + 739 x(19)#19 + 226 x(20)#20 + 679 x(21)#21
      + 588 x(22)#22 + 21 x(23)#23 + 568 x(24)#24 + 191 x(25)#25 + 396 x(26)#26
      + 531 x(27)#27 + 535 x(28)#28 + 542 x(29)#29 + 592 x(30)#30
      + 254 x(31)#31 + 408 x(32)#32 + 235 x(33)#33 + 510 x(34)#34
      + 317 x(35)#35 + 851 x(36)#36 + 330 x(37)#37 + 197 x(38)#38
      + 141 x(39)#39 + 134 x(40)#40 + 530 x(41)#41 + 749 x(42)#42
      + 631 x(43)#43 + 264 x(44)#44 + 708 x(45)#45 + 677 x(46)#46
      + 637 x(47)#47 + 892 x(48)#48 + 184 x(49)#49 + 128 x(50)#50
      + 547 x(51)#51 + 822 x(52)#52 + 224 x(53)#53 + 607 x(54)#54
      + 869 x(55)#55 + 270 x(56)#56 + 473 x(57)#57 + 453 x(58)#58
      + 836 x(59)#59 + 344 x(60)#60 + 804 x(61)#61 + 269 x(62)#62
      + 471 x(63)#63 + 488 x(64)#64 + 49 x(65)#65 + 28 x(66)#66 + 411 x(67)#67
      + 366 x(68)#68 + 622 x(69)#69 + 190 x(70)#70 + 291 x(71)#71 + 21 x(72)#72
      + 227 x(73)#73 + 105 x(74)#74 + 294 x(75)#75 + 67 x(76)#76 + 630 x(77)#77
      + 731 x(78)#78 + 228 x(79)#79 + 296 x(80)#80 + 540 x(81)#81
      + 388 x(82)#82 + 862 x(83)#83 + 790 x(84)#84 + 838 x(85)#85
      + 363 x(86)#86 + 975 x(87)#87 + 965 x(88)#88 + 599 x(89)#89
      + 610 x(90)#90 + 391 x(91)#91 + 171 x(92)#92 + 55 x(93)#93 + 761 x(94)#94
      + 49 x(95)#95 + 942 x(96)#96 + 689 x(97)#97 + 148 x(98)#98 + 649 x(99)#99
      <= 11741
 c2:  74 x(0)#0 + 972 x(1)#1 + 955 x(2)#2 + 264 x(3)#3 + 113 x(4)#4
      + 972 x(5)#5 + 245 x(6)#6 + 483 x(7)#7 + 525 x(8)#8 + 854 x(9)#9
      + 3 x(10)#10 + 799 x(11)#11 + 478 x(12)#12 + 590 x(13)#13 + 293 x(14)#14
      + 605 x(15)#15 + 156 x(16)#16 + 57 x(17)#17 + 648 x(18)#18 + 21 x(19)#19
      + 515 x(20)#20 + 441 x(21)#21 + 475 x(22)#22 + 204 x(23)#23
      + 482 x(24)#24 + 756 x(25)#25 + 636 x(26)#26 + 124 x(27)#27
      + 826 x(28)#28 + 163 x(29)#29 + 309 x(30)#30 + 400 x(31)#31
      + 919 x(32)#32 + 883 x(33)#33 + 109 x(34)#34 + 228 x(35)#35
      + 1000 x(36)#36 + 182 x(37)#37 + 408 x(38)#38 + 966 x(39)#39
      + 870 x(40)#40 + 431 x(41)#41 + 966 x(42)#42 + 360 x(43)#43
      + 606 x(44)#44 + 967 x(45)#45 + 533 x(46)#46 + 824 x(47)#47
      + 783 x(48)#48 + 50 x(49)#49 + 670 x(50)#50 + 662 x(51)#51 + 242 x(52)#52
      + 424 x(53)#53 + 919 x(54)#54 + 570 x(55)#55 + 812 x(56)#56
      + 773 x(57)#57 + 109 x(58)#58 + 273 x(59)#59 + 653 x(60)#60
      + 496 x(61)#61 + 912 x(62)#62 + 854 x(63)#63 + 918 x(64)#64
      + 724 x(65)#65 + 684 x(66)#66 + 792 x(67)#67 + 964 x(68)#68 + 56 x(69)#69
      + 99 x(70)#70 + 871 x(71)#71 + 175 x(72)#72 + 38 x(73)#73 + 44 x(74)#74
      + 125 x(75)#75 + 305 x(76)#76 + 622 x(77)#77 + 522 x(78)#78
      + 391 x(79)#79 + 607 x(80)#80 + 920 x(81)#81 + 748 x(82)#82
      + 225 x(83)#83 + 617 x(84)#84 + 292 x(85)#85 + 79 x(86)#86 + 451 x(87)#87
      + x(88)#88 + 673 x(89)#89 + 974 x(90)#90 + 118 x(91)#91 + 158 x(92)#92
      + 263 x(93)#93 + 853 x(94)#94 + 564 x(95)#95 + 925 x(96)#96
      + 566 x(97)#97 + 288 x(98)#98 + 73 x(99)#99 <= 12654
 c3:  740 x(0)#0 + 347 x(1)#1 + 550 x(2)#2 + 222 x(3)#3 + 583 x(4)#4
      + 829 x(5)#5 + 237 x(6)#6 + 288 x(7)#7 + 886 x(8)#8 + 524 x(9)#9
      + 636 x(10)#10 + 770 x(11)#11 + 100 x(12)#12 + 940 x(13)#13 + 83 x(14)#14
      + 856 x(15)#15 + 872 x(16)#16 + 804 x(17)#17 + 587 x(18)#18
      + 630 x(19)#19 + 962 x(20)#20 + 425 x(21)#21 + 437 x(22)#22
      + 187 x(23)#23 + 229 x(24)#24 + 825 x(25)#25 + 59 x(26)#26 + 442 x(27)#27
      + 566 x(28)#28 + 113 x(29)#29 + 480 x(30)#30 + 170 x(31)#31
      + 985 x(32)#32 + 54 x(33)#33 + 561 x(34)#34 + 563 x(35)#35 + 542 x(36)#36
      + 356 x(37)#37 + 192 x(38)#38 + 15 x(39)#39 + 581 x(40)#40 + 655 x(41)#41
      + 588 x(42)#42 + 321 x(43)#43 + 879 x(44)#44 + 781 x(45)#45
      + 755 x(46)#46 + 833 x(47)#47 + 160 x(48)#48 + 736 x(49)#49
      + 338 x(50)#50 + 483 x(51)#51 + 213 x(52)#52 + 629 x(53)#53
      + 122 x(54)#54 + 290 x(55)#55 + 978 x(56)#56 + 93 x(57)#57 + 723 x(58)#58
      + 992 x(59)#59 + 841 x(60)#60 + 6 x(61)#61 + 629 x(62)#62 + 618 x(63)#63
      + 113 x(64)#64 + 33 x(65)#65 + 891 x(66)#66 + 869 x(67)#67 + 340 x(68)#68
      + 34 x(69)#69 + 206 x(70)#70 + 220 x(71)#71 + 614 x(72)#72 + 322 x(73)#73
      + 50 x(74)#74 + 692 x(75)#75 + 791 x(76)#76 + 284 x(77)#77 + 259 x(78)#78
      + 485 x(79)#79 + 783 x(80)#80 + 185 x(81)#81 + 493 x(82)#82
      + 281 x(83)#83 + 812 x(84)#84 + 819 x(85)#85 + 998 x(86)#86
      + 674 x(87)#87 + 437 x(88)#88 + 996 x(89)#89 + 533 x(90)#90 + 78 x(91)#91
      + 52 x(92)#92 + 285 x(93)#93 + 55 x(94)#94 + 697 x(95)#95 + 390 x(96)#96
      + 853 x(97)#97 + 333 x(98)#98 + 406 x(99)#99 <= 12314
 c4:  569 x(0)#0 + 288 x(1)#1 + 686 x(2)#2 + 253 x(3)#3 + 362 x(4)#4
      + 379 x(5)#5 + 726 x(6)#6 + 963 x(7)#7 + 59 x(8)#8 + 456 x(9)#9
      + 436 x(10)#10 + 581 x(11)#11 + 575 x(12)#12 + 30 x(13)#13 + 708 x(14)#14
      + 586 x(15)#15 + 118 x(16)#16 + 470 x(17)#17 + 145 x(18)#18
      + 563 x(19)#19 + 863 x(20)#20 + 13 x(21)#21 + 904 x(22)#22 + 155 x(23)#23
      + 808 x(24)#24 + 924 x(25)#25 + 421 x(26)#26 + 199 x(27)#27
      + 606 x(28)#28 + 938 x(29)#29 + 174 x(30)#30 + 332 x(31)#31
      + 126 x(32)#32 + 100 x(33)#33 + 690 x(34)#34 + 979 x(35)#35
      + 191 x(36)#36 + 930 x(37)#37 + 279 x(38)#38 + 734 x(39)#39
      + 213 x(40)#40 + 705 x(41)#41 + 542 x(42)#42 + 95 x(43)#43 + 751 x(44)#44
      + 936 x(45)#45 + 903 x(46)#46 + 852 x(47)#47 + 867 x(48)#48
      + 451 x(49)#49 + 827 x(50)#50 + 693 x(51)#51 + 198 x(52)#52
      + 176 x(53)#53 + 821 x(54)#54 + 41 x(55)#55 + 558 x(56)#56 + 302 x(57)#57
      + 272 x(58)#58 + 355 x(59)#59 + 707 x(60)#60 + 191 x(61)#61
      + 200 x(62)#62 + 633 x(63)#63 + 281 x(64)#64 + 465 x(65)#65
      + 384 x(66)#66 + 238 x(67)#67 + 855 x(68)#68 + 400 x(69)#69
      + 710 x(70)#70 + 500 x(71)#71 + 853 x(72)#72 + 376 x(73)#73
      + 944 x(74)#74 + 52 x(75)#75 + 751 x(76)#76 + 350 x(77)#77 + 261 x(78)#78
      + 129 x(79)#79 + 795 x(80)#80 + 500 x(81)#81 + 419 x(82)#82
      + 239 x(83)#83 + 308 x(84)#84 + 302 x(85)#85 + 228 x(86)#86
      + 911 x(87)#87 + 53 x(88)#88 + 192 x(89)#89 + 568 x(90)#90 + 375 x(91)#91
      + 93 x(92)#92 + 140 x(93)#93 + 225 x(94)#94 + 651 x(95)#95 + 76 x(96)#96
      + 701 x(97)#97 + 352 x(98)#98 + 542 x(99)#99 <= 11707
 c5:  865 x(0)#0 + 228 x(1)#1 + 443 x(2)#2 + 119 x(3)#3 + 649 x(4)#4
      + 213 x(5)#5 + 123 x(6)#6 + 612 x(7)#7 + 167 x(8)#8 + 40 x(9)#9
      + 463 x(10)#10 + 823 x(11)#11 + 783 x(12)#12 + 361 x(13)#13
      + 178 x(14)#14 + 123 x(15)#15 + 48 x(16)#16 + 455 x(17)#17 + 333 x(18)#18
      + 996 x(19)#19 + 117 x(20)#20 + 308 x(21)#21 + 844 x(22)#22
      + 210 x(23)#23 + 618 x(24)#24 + 490 x(25)#25 + 329 x(26)#26 + 92 x(27)#27
      + 158 x(28)#28 + 368 x(29)#29 + 524 x(30)#30 + 219 x(31)#31
      + 885 x(32)#32 + 174 x(33)#33 + 237 x(34)#34 + 270 x(35)#35
      + 579 x(36)#36 + 126 x(37)#37 + 743 x(38)#38 + 983 x(39)#39
      + 352 x(40)#40 + 23 x(41)#41 + 452 x(42)#42 + 400 x(43)#43 + 478 x(44)#44
      + 873 x(45)#45 + 472 x(46)#46 + 7 x(47)#47 + 427 x(48)#48 + 554 x(49)#49
      + 143 x(50)#50 + 194 x(51)#51 + 182 x(52)#52 + 762 x(53)#53
      + 589 x(54)#54 + 251 x(55)#55 + 828 x(56)#56 + 336 x(57)#57
      + 554 x(58)#58 + 18 x(59)#59 + 944 x(60)#60 + 890 x(61)#61 + 242 x(62)#62
      + 501 x(63)#63 + 36 x(64)#64 + 247 x(65)#65 + 45 x(66)#66 + 992 x(67)#67
      + 226 x(68)#68 + 430 x(69)#69 + 811 x(70)#70 + 45 x(71)#71 + 808 x(72)#72
      + 98 x(73)#73 + 437 x(74)#74 + 986 x(75)#75 + 367 x(76)#76 + 44 x(77)#77
      + 84 x(78)#78 + 229 x(79)#79 + 907 x(80)#80 + 999 x(81)#81 + 627 x(82)#82
      + 223 x(83)#83 + 681 x(84)#84 + 601 x(85)#85 + 635 x(86)#86
      + 940 x(87)#87 + 185 x(88)#88 + 254 x(89)#89 + 506 x(90)#90
      + 550 x(91)#91 + 224 x(92)#92 + 628 x(93)#93 + 730 x(94)#94
      + 132 x(95)#95 + 124 x(96)#96 + 543 x(97)#97 + 851 x(98)#98
      + 455 x(99)#99 <= 10862
 c6:  942 x(0)#0 + 138 x(1)#1 + 984 x(2)#2 + 726 x(3)#3 + 497 x(4)#4
      + 922 x(5)#5 + 354 x(6)#6 + 534 x(7)#7 + 245 x(8)#8 + 819 x(9)#9
      + 679 x(10)#10 + 171 x(11)#11 + 178 x(12)#12 + 278 x(13)#13 + 16 x(14)#14
      + 397 x(15)#15 + 420 x(16)#16 + 737 x(17)#17 + 694 x(18)#18
      + 619 x(19)#19 + 147 x(20)#20 + 373 x(21)#21 + 754 x(22)#22
      + 472 x(23)#23 + 96 x(24)#24 + 342 x(25)#25 + 558 x(26)#26 + 296 x(27)#27
      + 183 x(28)#28 + 405 x(29)#29 + 438 x(30)#30 + 113 x(31)#31
      + 223 x(32)#32 + 365 x(33)#33 + 798 x(34)#34 + 90 x(35)#35 + 66 x(36)#36
      + 630 x(37)#37 + 939 x(38)#38 + 820 x(39)#39 + 741 x(40)#40
      + 309 x(41)#41 + 33 x(42)#42 + 122 x(43)#43 + 311 x(44)#44 + 129 x(45)#45
      + 808 x(46)#46 + 386 x(47)#47 + 513 x(48)#48 + 323 x(49)#49
      + 357 x(50)#50 + 377 x(51)#51 + 89 x(52)#52 + 373 x(53)#53 + 665 x(54)#54
      + 856 x(55)#55 + 959 x(56)#56 + 959 x(57)#57 + 708 x(58)#58
      + 225 x(59)#59 + 932 x(60)#60 + 497 x(61)#61 + 15 x(62)#62 + 855 x(63)#63
      + 797 x(64)#64 + 228 x(65)#65 + 669 x(66)#66 + 16 x(67)#67 + 620 x(68)#68
      + 375 x(69)#69 + 423 x(70)#70 + 284 x(71)#71 + 328 x(72)#72 + 27 x(73)#73
      + 337 x(74)#74 + 651 x(75)#75 + 906 x(76)#76 + 605 x(77)#77
      + 297 x(78)#78 + 456 x(79)#79 + 143 x(80)#80 + 606 x(81)#81
      + 865 x(82)#82 + 814 x(83)#83 + 76 x(84)#84 + 181 x(85)#85 + 568 x(86)#86
      + 438 x(87)#87 + 285 x(88)#88 + 111 x(89)#89 + 581 x(90)#90 + 55 x(91)#91
      + 475 x(92)#92 + 732 x(93)#93 + 126 x(94)#94 + 858 x(95)#95
      + 769 x(96)#96 + 409 x(97)#97 + 660 x(98)#98 + 290 x(99)#99 <= 11515
 c7:  717 x(0)#0 + 932 x(1)#1 + 767 x(2)#2 + 654 x(3)#3 + 479 x(4)#4
      + 884 x(5)#5 + 361 x(6)#6 + 532 x(7)#7 + 947 x(8)#8 + 12 x(9)#9
      + 203 x(10)#10 + 765 x(11)#11 + 798 x(12)#12 + 539 x(13)#13
      + 105 x(14)#14 + 739 x(15)#15 + 626 x(16)#16 + 349 x(17)#17
      + 823 x(18)#18 + 242 x(19)#19 + 154 x(20)#20 + 759 x(21)#21
      + 616 x(22)#22 + 665 x(23)#23 + 212 x(24)#24 + 341 x(25)#25
      + 275 x(26)#26 + 424 x(27)#27 + 546 x(28)#28 + 596 x(29)#29
      + 180 x(30)#30 + 207 x(31)#31 + 839 x(32)#32 + 558 x(33)#33
      + 963 x(34)#34 + 554 x(35)#35 + 41 x(36)#36 + 496 x(37)#37 + 822 x(38)#38
      + 286 x(39)#39 + 106 x(40)#40 + 509 x(41)#41 + 584 x(42)#42
      + 994 x(43)#43 + 574 x(44)#44 + 473 x(45)#45 + 310 x(46)#46
      + 398 x(47)#47 + 717 x(48)#48 + 606 x(49)#49 + 822 x(50)#50
      + 956 x(51)#51 + 646 x(52)#52 + 870 x(53)#53 + 742 x(54)#54
      + 449 x(55)#55 + 160 x(56)#56 + 109 x(57)#57 + 229 x(58)#58
      + 450 x(59)#59 + 144 x(60)#60 + 571 x(61)#61 + 820 x(62)#62 + 38 x(63)#63
      + 920 x(64)#64 + 292 x(65)#65 + 34 x(66)#66 + 200 x(67)#67 + 702 x(68)#68
      + 344 x(69)#69 + 19 x(70)#70 + 105 x(71)#71 + 816 x(72)#72 + 737 x(73)#73
      + 686 x(74)#74 + 255 x(75)#75 + 336 x(76)#76 + 161 x(77)#77
      + 360 x(78)#78 + 320 x(79)#79 + 244 x(80)#80 + 71 x(81)#81 + 684 x(82)#82
      + 324 x(83)#83 + 986 x(84)#84 + 509 x(85)#85 + 927 x(86)#86
      + 237 x(87)#87 + 557 x(88)#88 + 835 x(89)#89 + 789 x(90)#90
      + 728 x(91)#91 + 811 x(92)#92 + 57 x(93)#93 + 518 x(94)#94 + 265 x(95)#95
      + 586 x(96)#96 + 494 x(97)#97 + 197 x(98)#98 + 632 x(99)#99 <= 12506
 c8:  150 x(0)#0 + 380 x(1)#1 + 894 x(2)#2 + 229 x(3)#3 + 124 x(4)#4
      + 888 x(5)#5 + 325 x(6)#6 + 716 x(7)#7 + 323 x(8)#8 + 290 x(9)#9
      + 15 x(10)#10 + 473 x(11)#11 + 327 x(12)#12 + 345 x(13)#13 + 26 x(14)#14
      + 218 x(15)#15 + 165 x(16)#16 + 675 x(17)#17 + 91 x(18)#18 + 839 x(19)#19
      + 101 x(20)#20 + 103 x(21)#21 + 250 x(22)#22 + 802 x(23)#23
      + 475 x(24)#24 + 707 x(25)#25 + 624 x(26)#26 + 878 x(27)#27
      + 684 x(28)#28 + 541 x(29)#29 + 236 x(30)#30 + 18 x(31)#31 + 449 x(32)#32
      + 419 x(33)#33 + 576 x(34)#34 + 570 x(35)#35 + 606 x(36)#36
      + 472 x(37)#37 + 47 x(38)#38 + 905 x(39)#39 + 311 x(40)#40 + 948 x(41)#41
      + 450 x(42)#42 + 569 x(43)#43 + 238 x(44)#44 + 579 x(45)#45
      + 263 x(46)#46 + 334 x(47)#47 + 783 x(48)#48 + 305 x(49)#49
      + 497 x(50)#50 + 805 x(51)#51 + 407 x(52)#52 + 50 x(53)#53 + 406 x(54)#54
      + 184 x(55)#55 + 297 x(56)#56 + 812 x(57)#57 + 66 x(58)#58 + 311 x(59)#59
      + 215 x(60)#60 + 360 x(61)#61 + 430 x(62)#62 + 117 x(63)#63
      + 968 x(64)#64 + 445 x(65)#65 + 232 x(66)#66 + 784 x(67)#67
      + 686 x(68)#68 + 251 x(69)#69 + 890 x(70)#70 + 478 x(71)#71
      + 380 x(72)#72 + 160 x(73)#73 + 186 x(74)#74 + 63 x(75)#75 + 242 x(76)#76
      + 709 x(77)#77 + 540 x(78)#78 + 263 x(79)#79 + 744 x(80)#80
      + 966 x(81)#81 + 290 x(82)#82 + 433 x(83)#83 + 316 x(84)#84
      + 827 x(85)#85 + 310 x(86)#86 + 906 x(87)#87 + 43 x(88)#88 + 593 x(89)#89
      + 725 x(90)#90 + 506 x(91)#91 + 401 x(92)#92 + 664 x(93)#93
      + 556 x(94)#94 + 819 x(95)#95 + 378 x(96)#96 + 147 x(97)#97
      + 752 x(98)#98 + 39 x(99)#99 <= 11096
 c9:  84 x(0)#0 + 537 x(1)#1 + 927 x(2)#2 + 379 x(3)#3 + 986 x(4)#4
      + 350 x(5)#5 + 623 x(6)#6 + 85 x(7)#7 + 521 x(8)#8 + 224 x(9)#9
      + 497 x(10)#10 + 655 x(11)#11 + 488 x(12)#12 + 162 x(13)#13
      + 797 x(14)#14 + 689 x(15)#15 + 586 x(16)#16 + 443 x(17)#17 + 53 x(18)#18
      + 896 x(19)#19 + 555 x(20)#20 + 676 x(21)#21 + 825 x(22)#22 + 80 x(23)#23
      + 924 x(24)#24 + 716 x(25)#25 + 886 x(26)#26 + 66 x(27)#27 + 726 x(28)#28
      + 612 x(29)#29 + 598 x(30)#30 + 174 x(31)#31 + 905 x(32)#32
      + 193 x(33)#33 + 725 x(34)#34 + 984 x(35)#35 + 122 x(36)#36
      + 572 x(37)#37 + 576 x(38)#38 + 42 x(39)#39 + 485 x(40)#40 + 164 x(41)#41
      + 806 x(42)#42 + 516 x(43)#43 + 600 x(44)#44 + 30 x(45)#45 + 924 x(46)#46
      + 822 x(47)#47 + 203 x(48)#48 + 850 x(49)#49 + 913 x(50)#50
      + 138 x(51)#51 + 976 x(52)#52 + 621 x(53)#53 + 470 x(54)#54
      + 929 x(55)#55 + 383 x(56)#56 + 29 x(57)#57 + 724 x(58)#58 + 700 x(59)#59
      + 295 x(60)#60 + 792 x(61)#61 + 882 x(62)#62 + 7 x(63)#63 + 707 x(64)#64
      + 100 x(65)#65 + 349 x(66)#66 + 956 x(67)#67 + 314 x(68)#68
      + 125 x(69)#69 + 974 x(70)#70 + 550 x(71)#71 + 925 x(72)#72
      + 815 x(73)#73 + 170 x(74)#74 + 984 x(75)#75 + 662 x(76)#76
      + 177 x(77)#77 + 989 x(78)#78 + 520 x(79)#79 + 301 x(80)#80
      + 854 x(81)#81 + 507 x(82)#82 + 511 x(83)#83 + 290 x(84)#84
      + 851 x(85)#85 + 180 x(86)#86 + 158 x(87)#87 + 66 x(88)#88 + 202 x(89)#89
      + 869 x(90)#90 + 615 x(91)#91 + 506 x(92)#92 + 112 x(93)#93
      + 598 x(94)#94 + 401 x(95)#95 + 740 x(96)#96 + 457 x(97)#97
      + 663 x(98)#98 + 89 x(99)#99 <= 13121
 c10: 4 x(0)#0 + 630 x(1)#1 + 625 x(2)#2 + 432 x(3)#3 + 161 x(4)#4 + 20 x(5)#5
      + 486 x(6)#6 + 785 x(7)#7 + 868 x(8)#8 + 308 x(9)#9 + 656 x(10)#10
      + 215 x(11)#11 + 242 x(12)#12 + 49 x(13)#13 + 179 x(14)#14 + 489 x(15)#15
      + 554 x(16)#16 + 262 x(17)#17 + 50 x(18)#18 + 77 x(19)#19 + 485 x(20)#20
      + 851 x(21)#21 + 386 x(22)#22 + 605 x(23)#23 + 320 x(24)#24
      + 396 x(25)#25 + 920 x(26)#26 + 123 x(27)#27 + 475 x(28)#28
      + 248 x(29)#29 + 491 x(30)#30 + 534 x(31)#31 + 95 x(32)#32 + 185 x(33)#33
      + 216 x(34)#34 + 26 x(35)#35 + 130 x(36)#36 + 704 x(37)#37 + 450 x(38)#38
      + 473 x(39)#39 + 481 x(40)#40 + 598 x(41)#41 + 775 x(42)#42
      + 315 x(43)#43 + 842 x(44)#44 + 43 x(45)#45 + 232 x(46)#46 + 134 x(47)#47
      + 359 x(48)#48 + 383 x(49)#49 + 128 x(50)#50 + 279 x(51)#51
      + 841 x(52)#52 + 145 x(53)#53 + 834 x(54)#54 + 516 x(55)#55
      + 538 x(56)#56 + 635 x(57)#57 + 296 x(58)#58 + 687 x(59)#59
      + 305 x(60)#60 + 706 x(61)#61 + 688 x(62)#62 + 266 x(63)#63
      + 635 x(64)#64 + 286 x(65)#65 + 85 x(66)#66 + 106 x(67)#67 + 758 x(68)#68
      + 510 x(69)#69 + 253 x(70)#70 + 726 x(71)#71 + 302 x(72)#72
      + 856 x(73)#73 + 536 x(74)#74 + 204 x(75)#75 + 603 x(76)#76
      + 227 x(77)#77 + 75 x(78)#78 + 104 x(79)#79 + 904 x(80)#80 + 677 x(81)#81
      + 272 x(82)#82 + 260 x(83)#83 + 21 x(84)#84 + 268 x(85)#85 + 38 x(86)#86
      + 861 x(87)#87 + 495 x(88)#88 + 453 x(89)#89 + 432 x(90)#90
      + 347 x(91)#91 + 76 x(92)#92 + 150 x(93)#93 + 607 x(94)#94 + 159 x(95)#95
      + 977 x(96)#96 + 596 x(97)#97 + 445 x(98)#98 + 730 x(99)#99 <= 10316
Bounds
 0 <= x(0)#0 <= 1
 0 <= x(1)#1 <= 1
 0 <= x(2)#2 <= 1
 0 <= x(3)#3 <= 1
 0 <= x(4)#4 <= 1
 0 <= x(5)#5 <= 1
 0 <= x(6)#6 <= 1
 0 <= x(7)#7 <= 1
 0 <= x(8)#8 <= 1
 0 <= x(9)#9 <= 1
 0 <= x(10)#10 <= 1
 0 <= x(11)#11 <= 1
 0 <= x(12)#12 <= 1
 0 <= x(13)#13 <= 1
 0 <= x(14)#14 <= 1
 0 <= x(15)#15 <= 1
 0 <= x(16)#16 <= 1
 0 <= x(17)#17 <= 1
 0 <= x(18)#18 <= 1
 0 <= x(19)#19 <= 1
 0 <= x(20)#20 <= 1
 0 <= x(21)#21 <= 1
 0 <= x(22)#22 <= 1
 0 <= x(23)#23 <= 1
 0 <= x(24)#24 <= 1
 0 <= x(25)#25 <= 1
 0 <= x(26)#26 <= 1
 0 <= x(27)#27 <= 1
 0 <= x(28)#28 <= 1
 0 <= x(29)#29 <= 1
 0 <= x(30)#30 <= 1
 0 <= x(31)#31 <= 1
 0 <= x(32)#32 <= 1
 0 <= x(33)#33 <= 1
 0 <= x(34)#34 <= 1
 0 <= x(35)#35 <= 1
 0 <= x(36)#36 <= 1
 0 <= x(37)#37 <= 1
 0 <= x(38)#38 <= 1
 0 <= x(39)#39 <= 1
 0 <= x(40)#40 <= 1
 0 <= x(41)#41 <= 1
 0 <= x(42)#42 <= 1
 0 <= x(43)#43 <= 1
 0 <= x(44)#44 <= 1
 0 <= x(45)#45 <= 1
 0 <= x(46)#46 <= 1
 0 <= x(47)#47 <= 1
 0 <= x(48)#48 <= 1
 0 <= x(49)#49 <= 1
 0 <= x(50)#50 <= 1
 0 <= x(51)#51 <= 1
 0 <= x(52)#52 <= 1
 0 <= x(53)#53 <= 1
 0 <= x(54)#54 <= 1
 0 <= x(55)#55 <= 1
 0 <= x(56)#56 <= 1
 0 <= x(57)#57 <= 1
 0 <= x(58)#58 <= 1
 0 <= x(59)#59 <= 1
 0 <= x(60)#60 <= 1
 0 <= x(61)#61 <= 1
 0 <= x(62)#62 <= 1
 0 <= x(63)#63 <= 1
 0 <= x(64)#64 <= 1
 0 <= x(65)#65 <= 1
 0 <= x(66)#66 <= 1
 0 <= x(67)#67 <= 1
 0 <= x(68)#68 <= 1
 0 <= x(69)#69 <= 1
 0 <= x(70)#70 <= 1
 0 <= x(71)#71 <= 1
 0 <= x(72)#72 <= 1
 0 <= x(73)#73 <= 1
 0 <= x(74)#74 <= 1
 0 <= x(75)#75 <= 1
 0 <= x(76)#76 <= 1
 0 <= x(77)#77 <= 1
 0 <= x(78)#78 <= 1
 0 <= x(79)#79 <= 1
 0 <= x(80)#80 <= 1
 0 <= x(81)#81 <= 1
 0 <= x(82)#82 <= 1
 0 <= x(83)#83 <= 1
 0 <= x(84)#84 <= 1
 0 <= x(85)#85 <= 1
 0 <= x(86)#86 <= 1
 0 <= x(87)#87 <= 1
 0 <= x(88)#88 <= 1
 0 <= x(89)#89 <= 1
 0 <= x(90)#90 <= 1
 0 <= x(91)#91 <= 1
 0 <= x(92)#92 <= 1
 0 <= x(93)#93 <= 1
 0 <= x(94)#94 <= 1
 0 <= x(95)#95 <= 1
 0 <= x(96)#96 <= 1
 0 <= x(97)#97 <= 1
 0 <= x(98)#98 <= 1
 0 <= x(99)#99 <= 1
Generals
 x(0)#0  x(1)#1  x(2)#2  x(3)#3  x(4)#4  x(5)#5  x(6)#6  x(7)#7  x(8)#8 
 x(9)#9  x(10)#10  x(11)#11  x(12)#12  x(13)#13  x(14)#14  x(15)#15  x(16)#16 
 x(17)#17  x(18)#18  x(19)#19  x(20)#20  x(21)#21  x(22)#22  x(23)#23 
 x(24)#24  x(25)#25  x(26)#26  x(27)#27  x(28)#28  x(29)#29  x(30)#30 
 x(31)#31  x(32)#32  x(33)#33  x(34)#34  x(35)#35  x(36)#36  x(37)#37 
 x(38)#38  x(39)#39  x(40)#40  x(41)#41  x(42)#42  x(43)#43  x(44)#44 
 x(45)#45  x(46)#46  x(47)#47  x(48)#48  x(49)#49  x(50)#50  x(51)#51 
 x(52)#52  x(53)#53  x(54)#54  x(55)#55  x(56)#56  x(57)#57  x(58)#58 
 x(59)#59  x(60)#60  x(61)#61  x(62)#62  x(63)#63  x(64)#64  x(65)#65 
 x(66)#66  x(67)#67  x(68)#68  x(69)#69  x(70)#70  x(71)#71  x(72)#72 
 x(73)#73  x(74)#74  x(75)#75  x(76)#76  x(77)#77  x(78)#78  x(79)#79 
 x(80)#80  x(81)#81  x(82)#82  x(83)#83  x(84)#84  x(85)#85  x(86)#86 
 x(87)#87  x(88)#88  x(89)#89  x(90)#90  x(91)#91  x(92)#92  x(93)#93 
 x(94)#94  x(95)#95  x(96)#96  x(97)#97  x(98)#98  x(99)#99 
End
